34
1 1 2
2 1 4
3 1 13
4 1 12
5 2 13
6 2 14
7 2 3
8 3 14
9 3 4
10 4 14
11 4 13
12 4 5
13 5 14
14 5 13
15 5 6
16 6 14
17 6 13
18 6 7
19 7 14
20 7 13
21 7 8
22 8 14
23 8 13
24 8 9
25 9 13
26 9 10
27 10 13
28 10 14
29 10 11
30 11 13
31 11 14
32 11 12
33 12 13
34 12 14